(declare-const X String)
; ^[a-zA-Z]+(([\'\,\.\- ][a-zA-Z ])?[a-zA-Z]*)*$
(assert (not (str.in_re X (re.++ (re.+ (re.union (re.range "a" "z") (re.range "A" "Z"))) (re.* (re.++ (re.opt (re.++ (re.union (str.to_re "'") (str.to_re ",") (str.to_re ".") (str.to_re "-") (str.to_re " ")) (re.union (re.range "a" "z") (re.range "A" "Z") (str.to_re " ")))) (re.* (re.union (re.range "a" "z") (re.range "A" "Z"))))) (str.to_re "\u{a}")))))
; \d{4}\s\d{4}\s\d{4}\s\d{4}$
(assert (not (str.in_re X (re.++ ((_ re.loop 4 4) (re.range "0" "9")) (re.union (str.to_re " ") (str.to_re "\u{9}") (str.to_re "\u{a}") (str.to_re "\u{c}") (str.to_re "\u{d}")) ((_ re.loop 4 4) (re.range "0" "9")) (re.union (str.to_re " ") (str.to_re "\u{9}") (str.to_re "\u{a}") (str.to_re "\u{c}") (str.to_re "\u{d}")) ((_ re.loop 4 4) (re.range "0" "9")) (re.union (str.to_re " ") (str.to_re "\u{9}") (str.to_re "\u{a}") (str.to_re "\u{c}") (str.to_re "\u{d}")) ((_ re.loop 4 4) (re.range "0" "9")) (str.to_re "\u{a}")))))
; \u{2F}ezsb\s+hirmvtg\u{2f}ggqh\.kqh\dRemotetoolsbar\u{2E}kuaiso\u{2E}com
(assert (not (str.in_re X (re.++ (str.to_re "/ezsb") (re.+ (re.union (str.to_re " ") (str.to_re "\u{9}") (str.to_re "\u{a}") (str.to_re "\u{c}") (str.to_re "\u{d}"))) (str.to_re "hirmvtg/ggqh.kqh\u{1b}") (re.range "0" "9") (str.to_re "Remotetoolsbar.kuaiso.com\u{a}")))))
; ^(([0-2]\d|[3][0-1])\/([0]\d|[1][0-2])\/[2][0]\d{2})$|^(([0-2]\d|[3][0-1])\/([0]\d|[1][0-2])\/[2][0]\d{2}\s([0-1]\d|[2][0-3])\:[0-5]\d\:[0-5]\d)$
(assert (not (str.in_re X (re.union (re.++ (re.union (re.++ (re.range "0" "2") (re.range "0" "9")) (re.++ (str.to_re "3") (re.range "0" "1"))) (str.to_re "/") (re.union (re.++ (str.to_re "0") (re.range "0" "9")) (re.++ (str.to_re "1") (re.range "0" "2"))) (str.to_re "/20") ((_ re.loop 2 2) (re.range "0" "9"))) (re.++ (str.to_re "\u{a}") (re.union (re.++ (re.range "0" "2") (re.range "0" "9")) (re.++ (str.to_re "3") (re.range "0" "1"))) (str.to_re "/") (re.union (re.++ (str.to_re "0") (re.range "0" "9")) (re.++ (str.to_re "1") (re.range "0" "2"))) (str.to_re "/20") ((_ re.loop 2 2) (re.range "0" "9")) (re.union (str.to_re " ") (str.to_re "\u{9}") (str.to_re "\u{a}") (str.to_re "\u{c}") (str.to_re "\u{d}")) (re.union (re.++ (re.range "0" "1") (re.range "0" "9")) (re.++ (str.to_re "2") (re.range "0" "3"))) (str.to_re ":") (re.range "0" "5") (re.range "0" "9") (str.to_re ":") (re.range "0" "5") (re.range "0" "9"))))))
; ProjectMyWebSearchSearchAssistantfast-look\u{2E}comOneReporter
(assert (str.in_re X (str.to_re "ProjectMyWebSearchSearchAssistantfast-look.comOneReporter\u{a}")))
(check-sat)
